(set-logic QF_S)
(declare-fun var0 () String)
(declare-fun var1 () String)
(declare-fun var2 () String)
(declare-fun var3 () String)
(declare-fun var4 () String)
(declare-fun var5 () String)
(declare-fun var6 () String)
(declare-fun var7 () String)
(declare-fun var8 () String)
(declare-fun var9 () String)
(declare-fun var10 () String)
(declare-fun var11 () String)
(declare-fun var12 () String)
(declare-fun var13 () String)
(declare-fun var14 () String)
(declare-fun var15 () String)
(declare-fun var16 () String)
(declare-fun var17 () String)
(declare-fun var18 () String)
(declare-fun var19 () String)
(declare-fun var20 () String)
(declare-fun var21 () String)
(declare-fun var22 () String)
(declare-fun var23 () String)
(declare-fun var24 () String)
(declare-fun var25 () String)
(declare-fun var26 () String)
(declare-fun var27 () String)
(declare-fun var28 () String)
(declare-fun var29 () String)
(declare-fun var30 () String)
(declare-fun var31 () String)
(declare-fun var32 () String)
(declare-fun var33 () String)
(declare-fun var34 () String)
(declare-fun var35 () String)
(declare-fun var36 () String)
(declare-fun var37 () String)
(declare-fun var38 () String)
(declare-fun var39 () String)
(declare-fun var40 () String)
(declare-fun var41 () String)
(declare-fun var42 () String)
(declare-fun var43 () String)
(declare-fun var44 () String)
(declare-fun var45 () String)
(declare-fun var46 () String)
(declare-fun var47 () String)
(declare-fun var48 () String)
(declare-fun var49 () String)
(declare-fun var50 () String)
(declare-fun var51 () String)
(declare-fun var52 () String)
(declare-fun var53 () String)
(declare-fun var54 () String)
(declare-fun var55 () String)
(declare-fun var56 () String)
(declare-fun var57 () String)
(declare-fun var58 () String)
(declare-fun var59 () String)
(declare-fun var60 () String)
(assert (= var0 (Concat var1 var2)))
(assert (= var2 (Concat var3 var4)))
(assert (= var4 (Concat var5 var6)))
(assert (= var6 (Concat var7 var8)))
(assert (= var8 (Concat var9 var10)))
(assert (= var10 (Concat var11 var12)))
(assert (= var12 (Concat var13 var14)))
(assert (= var14 (Concat var15 var16)))
(assert (= var16 (Concat var17 var18)))
(assert (= var18 (Concat var19 var20)))
(assert (= var20 (Concat var21 var22)))
(assert (= var22 (Concat var23 var24)))
(assert (= var24 (Concat var25 var26)))
(assert (= var26 (Concat var27 var28)))
(assert (= var28 (Concat var29 var30)))
(assert (= var30 (Concat var31 var32)))
(assert (= var32 (Concat var33 var34)))
(assert (= var34 (Concat var35 var36)))
(assert (= var36 (Concat var37 var38)))
(assert (= var38 (Concat var39 var40)))
(assert (= var40 (Concat var41 var42)))
(assert (= var42 (Concat var43 var44)))
(assert (= var44 (Concat var45 var46)))
(assert (= var46 (Concat var47 var48)))
(assert (= var48 (Concat var49 var50)))
(assert (= var50 (Concat var51 var52)))
(assert (= var52 (Concat var53 var54)))
(assert (= var54 (Concat var55 var56)))
(assert (= var56 (Concat var57 var58)))
(assert (= var58 (Concat var59 var60)))
(assert (= var0 "solution"))
(assert (= "P" (CharAt var0 355)))
(assert (= "R" (CharAt var39 853)))
(assert (= "W" (CharAt var53 210)))
(assert (= "u" (CharAt var17 750)))
(assert (= "5" (CharAt var11 558)))
(assert (= "V" (CharAt var53 686)))
(assert (= "=" (CharAt var58 484)))
(assert (= "!" (CharAt var29 224)))
(assert (= "z" (CharAt var45 479)))
(assert (= "D" (CharAt var42 708)))
(assert (= "A" (CharAt var34 955)))
(assert (= "6" (CharAt var44 944)))
(assert (= "c" (CharAt var21 496)))
(assert (= "L" (CharAt var31 756)))
(assert (= ":" (CharAt var3 771)))
(assert (= "=" (CharAt var28 296)))
(assert (= "F" (CharAt var9 804)))
(assert (= "M" (CharAt var35 375)))
(assert (= "?" (CharAt var11 927)))
(assert (= "<" (CharAt var44 937)))
(assert (= ">" (CharAt var34 248)))
(assert (= "H" (CharAt var19 855)))
(assert (= "v" (CharAt var29 222)))
(assert (= "u" (CharAt var18 382)))
(assert (= "b" (CharAt var40 556)))
(assert (= "|" (CharAt var11 113)))
(assert (= "\"" (CharAt var5 665)))
(assert (= "m" (CharAt var35 77)))
(assert (= "q" (CharAt var39 85)))
(assert (= "`" (CharAt var24 470)))
(assert (= "|" (CharAt var50 32)))
(assert (= "a" (CharAt var28 799)))
(assert (= "]" (CharAt var21 604)))
(assert (= "k" (CharAt var47 278)))
(assert (= "Y" (CharAt var6 412)))
(assert (= "Q" (CharAt var18 799)))
(assert (= "," (CharAt var14 698)))
(assert (= "3" (CharAt var39 297)))
(assert (= ")" (CharAt var23 440)))
(assert (= "q" (CharAt var15 52)))
(assert (= "B" (CharAt var49 838)))
(assert (= ":" (CharAt var40 394)))
(assert (= "(" (CharAt var26 261)))
(assert (= ")" (CharAt var5 541)))
(assert (= "p" (CharAt var51 471)))
(assert (= "F" (CharAt var0 529)))
(assert (= "L" (CharAt var9 627)))
(assert (= "@" (CharAt var50 697)))
(assert (= "}" (CharAt var37 266)))
(assert (= "^" (CharAt var51 997)))
(assert (= "O" (CharAt var23 348)))
(assert (= "r" (CharAt var51 559)))
(assert (= "0" (CharAt var43 329)))
(assert (= "W" (CharAt var9 241)))
(assert (= "s" (CharAt var44 115)))
(assert (= "1" (CharAt var32 375)))
(assert (= "G" (CharAt var54 753)))
(assert (= "i" (CharAt var12 701)))
(assert (= "\\" (CharAt var35 718)))
(assert (= "N" (CharAt var23 713)))
(assert (= "b" (CharAt var20 917)))
(assert (= "p" (CharAt var12 726)))
(assert (= "|" (CharAt var16 941)))
(assert (= "x" (CharAt var32 835)))
(assert (= "z" (CharAt var20 589)))
(assert (= "," (CharAt var5 137)))
(assert (= "@" (CharAt var18 727)))
(assert (= "(" (CharAt var30 613)))
(assert (= "#" (CharAt var30 204)))
(assert (= "[" (CharAt var12 185)))
(assert (= "s" (CharAt var19 690)))
(assert (= "0" (CharAt var60 432)))
(assert (= "q" (CharAt var35 538)))
(assert (= "_" (CharAt var56 457)))
(assert (= "o" (CharAt var6 308)))
(assert (= "p" (CharAt var46 319)))
(assert (= "5" (CharAt var44 435)))
(assert (= "z" (CharAt var10 54)))
(assert (= "t" (CharAt var59 710)))
(assert (= "e" (CharAt var37 30)))
(assert (= "f" (CharAt var32 407)))
(assert (= ")" (CharAt var8 75)))
(assert (= "w" (CharAt var44 601)))
(assert (= "G" (CharAt var27 482)))
(assert (= "u" (CharAt var31 945)))
(assert (= "B" (CharAt var7 403)))
(assert (= "\\" (CharAt var15 214)))
(assert (= "g" (CharAt var29 398)))
(assert (= "&" (CharAt var40 553)))
(assert (= ")" (CharAt var15 707)))
(assert (= "9" (CharAt var46 441)))
(assert (= "!" (CharAt var53 611)))
(assert (= "j" (CharAt var54 861)))
(assert (= "`" (CharAt var60 533)))
(assert (= "g" (CharAt var45 51)))
(assert (= "s" (CharAt var36 356)))
(assert (= "O" (CharAt var2 983)))
(assert (= "D" (CharAt var53 880)))
(assert (= "W" (CharAt var47 901)))
(assert (= ":" (CharAt var24 848)))
(assert (= "v" (CharAt var3 274)))
(assert (= "@" (CharAt var47 298)))
(assert (= ">" (CharAt var4 832)))
(assert (= "|" (CharAt var49 797)))
(assert (= "g" (CharAt var3 280)))
(assert (= "8" (CharAt var24 394)))
(assert (= "4" (CharAt var60 637)))
(assert (= "x" (CharAt var14 691)))
(assert (= "$" (CharAt var13 987)))
(assert (= "2" (CharAt var13 73)))
(assert (= "U" (CharAt var51 760)))
(assert (= "E" (CharAt var41 492)))
(assert (= "A" (CharAt var55 27)))
(assert (= "R" (CharAt var15 923)))
(assert (= "," (CharAt var30 181)))
(assert (= "2" (CharAt var34 126)))
(assert (= "&" (CharAt var49 47)))
(assert (= "8" (CharAt var59 872)))
(assert (= "#" (CharAt var48 743)))
(assert (= "/" (CharAt var7 673)))
(assert (= ">" (CharAt var11 767)))
(assert (= "C" (CharAt var3 872)))
(assert (= "R" (CharAt var13 358)))
(assert (= "L" (CharAt var9 188)))
(assert (= "s" (CharAt var45 92)))
(assert (= "t" (CharAt var25 354)))
(assert (= "0" (CharAt var30 669)))
(assert (= "," (CharAt var26 615)))
(assert (= ":" (CharAt var11 421)))
(assert (= "-" (CharAt var31 638)))
(assert (= "g" (CharAt var3 652)))
(assert (= "." (CharAt var48 335)))
(assert (= "k" (CharAt var7 10)))
(assert (= "h" (CharAt var13 611)))
(assert (= "L" (CharAt var50 710)))
(assert (= "!" (CharAt var44 644)))
(assert (= "y" (CharAt var15 155)))
(assert (= "=" (CharAt var35 771)))
(assert (= "I" (CharAt var28 534)))
(assert (= "." (CharAt var17 100)))
(assert (= "}" (CharAt var42 128)))
(assert (= "Z" (CharAt var7 210)))
(assert (= "'" (CharAt var41 43)))
(assert (= "3" (CharAt var42 83)))
(assert (= "<" (CharAt var37 722)))
(assert (= "L" (CharAt var16 630)))
(assert (= "(" (CharAt var29 983)))
(assert (= "a" (CharAt var18 832)))
(assert (= "]" (CharAt var32 221)))
(assert (= "2" (CharAt var50 778)))
(assert (= "+" (CharAt var43 930)))
(assert (= "(" (CharAt var49 807)))
(assert (= "C" (CharAt var50 646)))
(assert (= "C" (CharAt var17 284)))
(assert (= "t" (CharAt var38 957)))
(assert (= "5" (CharAt var5 320)))
(assert (= "}" (CharAt var29 875)))
(assert (= "U" (CharAt var42 114)))
(assert (= "-" (CharAt var34 355)))
(assert (= "k" (CharAt var36 827)))
(assert (= "\"" (CharAt var60 193)))
(assert (= "<" (CharAt var19 479)))
(assert (= "U" (CharAt var42 102)))
(assert (= "m" (CharAt var47 498)))
(assert (= "Q" (CharAt var46 70)))
(assert (= "<" (CharAt var26 513)))
(assert (= "w" (CharAt var38 965)))
(assert (= "-" (CharAt var21 410)))
(assert (= "/" (CharAt var19 305)))
(assert (= "G" (CharAt var34 934)))
(assert (= "Z" (CharAt var46 414)))
(assert (= "!" (CharAt var30 816)))
(assert (= "t" (CharAt var26 216)))
(assert (= "<" (CharAt var41 384)))
(assert (= "Z" (CharAt var50 190)))
(assert (= "," (CharAt var26 948)))
(assert (= "'" (CharAt var57 82)))
(assert (= "o" (CharAt var56 284)))
(assert (= "K" (CharAt var35 315)))
(assert (= "n" (CharAt var2 311)))
(assert (= "`" (CharAt var28 298)))
(assert (= "`" (CharAt var32 361)))
(assert (= "7" (CharAt var22 525)))
(assert (= "W" (CharAt var12 735)))
(assert (= "K" (CharAt var12 155)))
(assert (= "q" (CharAt var30 316)))
(assert (= "_" (CharAt var40 264)))
(assert (= "V" (CharAt var10 177)))
(assert (= "3" (CharAt var30 766)))
(assert (= "7" (CharAt var18 813)))
(assert (= "K" (CharAt var58 898)))
(assert (= "J" (CharAt var52 493)))
(assert (= "s" (CharAt var32 48)))
(assert (= "~" (CharAt var21 291)))
(assert (= "c" (CharAt var15 542)))
(assert (= "@" (CharAt var7 219)))
(assert (= "k" (CharAt var23 924)))
(assert (= "?" (CharAt var34 402)))
(assert (= "~" (CharAt var18 207)))
(assert (= "*" (CharAt var9 100)))
(assert (= "(" (CharAt var17 293)))
(assert (= "u" (CharAt var29 694)))
(assert (= "I" (CharAt var52 236)))
(assert (= "K" (CharAt var30 824)))
(assert (= "W" (CharAt var29 537)))
(assert (= "6" (CharAt var29 803)))
(assert (= "9" (CharAt var58 494)))
(assert (= "C" (CharAt var50 945)))
(assert (= "," (CharAt var52 311)))
(assert (= "*" (CharAt var34 537)))
(assert (= "$" (CharAt var7 431)))
(assert (= "_" (CharAt var43 266)))
(assert (= "m" (CharAt var30 165)))
(assert (= "R" (CharAt var24 783)))
(assert (= "-" (CharAt var36 168)))
(assert (= "H" (CharAt var28 615)))
(assert (= "t" (CharAt var59 568)))
(assert (= "d" (CharAt var4 868)))
(assert (= "m" (CharAt var48 840)))
(assert (= "*" (CharAt var19 850)))
(assert (= "I" (CharAt var26 674)))
(assert (= "0" (CharAt var51 906)))
(assert (= "&" (CharAt var23 45)))
(assert (= "@" (CharAt var39 164)))
(assert (= "x" (CharAt var10 584)))
(assert (= "M" (CharAt var54 8)))
(assert (= "P" (CharAt var20 614)))
(assert (= "P" (CharAt var4 826)))
(assert (= "5" (CharAt var29 357)))
(assert (= "t" (CharAt var17 485)))
(assert (= "c" (CharAt var57 459)))
(assert (= "m" (CharAt var17 764)))
(assert (= ">" (CharAt var60 965)))
(assert (= "R" (CharAt var47 395)))
(assert (= "E" (CharAt var42 123)))
(assert (= "s" (CharAt var40 335)))
(assert (= "%" (CharAt var35 785)))
(assert (= "T" (CharAt var37 22)))
(assert (= "b" (CharAt var58 325)))
(assert (= "F" (CharAt var54 799)))
(assert (= "L" (CharAt var26 558)))
(assert (= "c" (CharAt var28 680)))
(assert (= "e" (CharAt var29 721)))
(assert (= "4" (CharAt var0 226)))
(assert (= "]" (CharAt var40 893)))
(assert (= "l" (CharAt var9 882)))
(assert (= "." (CharAt var36 263)))
(assert (= "$" (CharAt var43 263)))
(assert (= "H" (CharAt var14 91)))
(assert (= ">" (CharAt var25 774)))
(assert (= "Y" (CharAt var27 952)))
(assert (= "h" (CharAt var52 639)))
(assert (= "2" (CharAt var6 347)))
(assert (= "J" (CharAt var17 358)))
(assert (= "b" (CharAt var40 489)))
(assert (= ":" (CharAt var47 748)))
(assert (= "_" (CharAt var48 53)))
(assert (= "R" (CharAt var21 155)))
(assert (= "C" (CharAt var4 776)))
(assert (= "Q" (CharAt var57 630)))
(assert (= ":" (CharAt var12 645)))
(assert (= "T" (CharAt var13 870)))
(assert (= "g" (CharAt var17 393)))
(assert (= "G" (CharAt var40 519)))
(assert (= "^" (CharAt var36 765)))
(assert (= "p" (CharAt var27 559)))
(assert (= "_" (CharAt var33 430)))
(assert (= "M" (CharAt var39 885)))
(assert (= "g" (CharAt var6 64)))
(assert (= "W" (CharAt var31 76)))
(assert (= "\"" (CharAt var10 940)))
(assert (= "M" (CharAt var28 424)))
(assert (= "T" (CharAt var32 56)))
(assert (= "c" (CharAt var10 516)))
(assert (= "k" (CharAt var28 785)))
(assert (= "/" (CharAt var10 810)))
(assert (= "'" (CharAt var54 409)))
(assert (= "T" (CharAt var54 854)))
(assert (= "R" (CharAt var14 178)))
(assert (= "[" (CharAt var23 445)))
(assert (= "7" (CharAt var43 842)))
(assert (= "1" (CharAt var46 637)))
(assert (= "X" (CharAt var18 540)))
(assert (= "&" (CharAt var22 767)))
(assert (= "M" (CharAt var2 184)))
(assert (= "L" (CharAt var2 115)))
(assert (= "S" (CharAt var34 753)))
(assert (= "*" (CharAt var43 520)))
(assert (= "f" (CharAt var37 729)))
(assert (= "R" (CharAt var7 523)))
(assert (= "y" (CharAt var16 449)))
(assert (= "U" (CharAt var54 139)))
(assert (= "[" (CharAt var3 13)))
(assert (= "]" (CharAt var54 41)))
(assert (= "R" (CharAt var26 506)))
(assert (= "g" (CharAt var57 943)))
(assert (= "I" (CharAt var0 67)))
(assert (= "7" (CharAt var46 639)))
(assert (= "d" (CharAt var60 792)))
(assert (= "V" (CharAt var27 115)))
(assert (= "`" (CharAt var19 18)))
(assert (= "P" (CharAt var2 61)))
(assert (= "W" (CharAt var40 321)))
(assert (= "$" (CharAt var39 109)))
(assert (= "b" (CharAt var21 359)))
(assert (= "U" (CharAt var22 333)))
(assert (= "8" (CharAt var51 639)))
(assert (= "x" (CharAt var6 697)))
(assert (= "^" (CharAt var17 371)))
(assert (= "5" (CharAt var35 69)))
(assert (= "_" (CharAt var54 837)))
(assert (= "2" (CharAt var2 354)))
(assert (= "\"" (CharAt var39 865)))
(assert (= "l" (CharAt var35 594)))
(assert (= "'" (CharAt var10 327)))
(assert (= "J" (CharAt var8 483)))
(assert (= "4" (CharAt var0 610)))
(assert (= "?" (CharAt var29 241)))
(assert (= "Z" (CharAt var40 548)))
(assert (= "_" (CharAt var49 466)))
(assert (= "o" (CharAt var38 554)))
(assert (= "T" (CharAt var54 538)))
(assert (= "!" (CharAt var35 464)))
(assert (= "V" (CharAt var3 336)))
(assert (= "8" (CharAt var1 493)))
(assert (= "," (CharAt var29 4)))
(assert (= "!" (CharAt var57 288)))
(assert (= "]" (CharAt var26 524)))
(assert (= "@" (CharAt var36 516)))
(assert (= "~" (CharAt var25 47)))
(assert (= "L" (CharAt var13 341)))
(assert (= "~" (CharAt var47 644)))
(assert (= "B" (CharAt var12 732)))
(assert (= "e" (CharAt var9 333)))
(assert (= "}" (CharAt var6 528)))
(assert (= ">" (CharAt var12 269)))
(assert (= ")" (CharAt var9 906)))
(assert (= "Q" (CharAt var17 685)))
(assert (= "g" (CharAt var17 978)))
(assert (= "z" (CharAt var43 28)))
(assert (= "v" (CharAt var44 906)))
(assert (= "z" (CharAt var30 152)))
(assert (= "u" (CharAt var41 891)))
(assert (= "2" (CharAt var59 595)))
(assert (= "L" (CharAt var29 670)))
(assert (= "z" (CharAt var54 226)))
(assert (= "+" (CharAt var36 289)))
(assert (= "M" (CharAt var57 798)))
(assert (= "A" (CharAt var33 468)))
(assert (= "/" (CharAt var34 186)))
(assert (= "$" (CharAt var59 754)))
(assert (= "+" (CharAt var0 626)))
(assert (= "V" (CharAt var24 556)))
(assert (= "l" (CharAt var42 173)))
(assert (= "b" (CharAt var0 344)))
(assert (= "]" (CharAt var2 836)))
(assert (= "<" (CharAt var45 655)))
(assert (= "i" (CharAt var20 13)))
(assert (= "V" (CharAt var9 21)))
(assert (= "\\" (CharAt var24 136)))
(assert (= "p" (CharAt var53 358)))
(assert (= "`" (CharAt var53 215)))
(assert (= "p" (CharAt var37 891)))
(assert (= "&" (CharAt var25 114)))
(assert (= "5" (CharAt var27 379)))
(assert (= "x" (CharAt var29 401)))
(assert (= "v" (CharAt var20 607)))
(assert (= "s" (CharAt var49 529)))
(assert (= "O" (CharAt var13 521)))
(assert (= "U" (CharAt var13 691)))
(assert (= "C" (CharAt var49 316)))
(assert (= "<" (CharAt var10 466)))
(assert (= ">" (CharAt var18 753)))
(assert (= "A" (CharAt var56 999)))
(assert (= "0" (CharAt var43 100)))
(assert (= "U" (CharAt var56 346)))
(assert (= "T" (CharAt var25 811)))
(assert (= "c" (CharAt var14 31)))
(assert (= "!" (CharAt var50 199)))
(assert (= ")" (CharAt var39 483)))
(assert (= "q" (CharAt var41 691)))
(assert (= "9" (CharAt var8 741)))
(assert (= "$" (CharAt var36 478)))
(assert (= ":" (CharAt var5 562)))
(assert (= "*" (CharAt var45 522)))
(assert (= "B" (CharAt var6 375)))
(assert (= "h" (CharAt var48 309)))
(assert (= "&" (CharAt var52 420)))
(assert (= "i" (CharAt var2 225)))
(assert (= "e" (CharAt var48 753)))
(assert (= "J" (CharAt var15 503)))
(assert (= "]" (CharAt var29 908)))
(assert (= "%" (CharAt var3 542)))
(assert (= "u" (CharAt var57 972)))
(assert (= "C" (CharAt var10 324)))
(assert (= "T" (CharAt var32 370)))
(assert (= "E" (CharAt var40 795)))
(assert (= "Q" (CharAt var0 937)))
(assert (= "j" (CharAt var13 807)))
(assert (= "5" (CharAt var27 234)))
(assert (= ">" (CharAt var17 803)))
(assert (= "m" (CharAt var0 761)))
(assert (= "p" (CharAt var11 491)))
(assert (= "y" (CharAt var45 438)))
(assert (= "0" (CharAt var46 821)))
(assert (= "0" (CharAt var44 782)))
(assert (= "z" (CharAt var31 728)))
(assert (= "b" (CharAt var39 977)))
(assert (= "." (CharAt var7 979)))
(assert (= "y" (CharAt var27 618)))
(assert (= "b" (CharAt var60 217)))
(assert (= "f" (CharAt var20 969)))
(assert (= "M" (CharAt var29 750)))
(assert (= "Z" (CharAt var7 24)))
(assert (= "C" (CharAt var38 35)))
(assert (= "H" (CharAt var55 602)))
(assert (= "~" (CharAt var5 253)))
(assert (= "9" (CharAt var50 250)))
(assert (= "X" (CharAt var56 443)))
(assert (= "O" (CharAt var5 919)))
(assert (= "G" (CharAt var36 511)))
(assert (= "^" (CharAt var8 284)))
(assert (= "-" (CharAt var0 825)))
(assert (= "\\" (CharAt var21 921)))
(assert (= "O" (CharAt var24 126)))
(assert (= "T" (CharAt var13 481)))
(assert (= "V" (CharAt var30 473)))
(assert (= "Z" (CharAt var19 418)))
(assert (= "T" (CharAt var10 512)))
(assert (= "J" (CharAt var30 410)))
(assert (= "z" (CharAt var33 373)))
(assert (= "*" (CharAt var17 422)))
(assert (= "s" (CharAt var36 864)))
(assert (= "k" (CharAt var25 277)))
(assert (= "`" (CharAt var43 359)))
(assert (= "+" (CharAt var22 739)))
(assert (= "=" (CharAt var45 22)))
(assert (= "&" (CharAt var45 650)))
(assert (= "X" (CharAt var33 24)))
(assert (= "(" (CharAt var7 98)))
(assert (= "4" (CharAt var40 174)))
(assert (= "*" (CharAt var14 248)))
(assert (= "|" (CharAt var42 426)))
(assert (= "P" (CharAt var1 899)))
(assert (= "n" (CharAt var2 923)))
(assert (= ":" (CharAt var11 804)))
(assert (= "]" (CharAt var47 185)))
(assert (= "J" (CharAt var18 476)))
(assert (= "T" (CharAt var34 552)))
(assert (= "^" (CharAt var46 816)))
(assert (= "N" (CharAt var46 632)))
(assert (= "." (CharAt var39 59)))
(assert (= "e" (CharAt var47 60)))
(assert (= "-" (CharAt var17 354)))
(assert (= "x" (CharAt var18 621)))
(assert (= "S" (CharAt var53 25)))
(assert (= "$" (CharAt var25 228)))
(assert (= "b" (CharAt var55 454)))
(assert (= "D" (CharAt var58 191)))
(assert (= "E" (CharAt var12 84)))
(assert (= "~" (CharAt var5 643)))
(assert (= "T" (CharAt var31 893)))
(assert (= "|" (CharAt var38 495)))
(assert (= "9" (CharAt var3 548)))
(assert (= "V" (CharAt var15 559)))
(assert (= "g" (CharAt var60 737)))
(assert (= "w" (CharAt var15 174)))
(assert (= "5" (CharAt var32 71)))
(assert (= "X" (CharAt var17 23)))
(assert (= "g" (CharAt var21 523)))
(assert (= "L" (CharAt var6 927)))
(assert (= ":" (CharAt var39 34)))
(assert (= "p" (CharAt var36 188)))
(assert (= "," (CharAt var25 545)))
(assert (= "," (CharAt var60 165)))
(assert (= "q" (CharAt var29 560)))
(assert (= "s" (CharAt var34 284)))
(assert (= "=" (CharAt var42 712)))
(assert (= "0" (CharAt var17 956)))
(assert (= "\\" (CharAt var25 234)))
(assert (= "8" (CharAt var44 18)))
(assert (= "Z" (CharAt var14 568)))
(assert (= "<" (CharAt var25 708)))
(assert (= "_" (CharAt var49 416)))
(assert (= ")" (CharAt var31 22)))
(assert (= "b" (CharAt var2 763)))
(assert (= "0" (CharAt var43 342)))
(assert (= "&" (CharAt var57 860)))
(assert (= "d" (CharAt var0 348)))
(assert (= "*" (CharAt var51 770)))
(assert (= "8" (CharAt var10 792)))
(assert (= "D" (CharAt var4 396)))
(assert (= "o" (CharAt var54 172)))
(assert (= "Z" (CharAt var39 155)))
(assert (= "s" (CharAt var24 292)))
(assert (= "|" (CharAt var2 28)))
(assert (= "g" (CharAt var58 146)))
(assert (= "A" (CharAt var12 851)))
(assert (= ">" (CharAt var28 624)))
(assert (= "I" (CharAt var53 357)))
(assert (= "%" (CharAt var27 534)))
(assert (= "T" (CharAt var43 832)))
(assert (= "t" (CharAt var19 440)))
(assert (= "p" (CharAt var49 203)))
(assert (= "F" (CharAt var13 956)))
(assert (= "q" (CharAt var45 65)))
(assert (= "h" (CharAt var33 44)))
(assert (= "!" (CharAt var31 469)))
(assert (= "o" (CharAt var56 203)))
(assert (= "x" (CharAt var32 104)))
(assert (= "~" (CharAt var9 858)))
(assert (= "j" (CharAt var31 57)))
(assert (= ">" (CharAt var29 125)))
(assert (= "," (CharAt var40 419)))
(assert (= "6" (CharAt var34 69)))
(assert (= ":" (CharAt var29 107)))
(assert (= "t" (CharAt var25 84)))
(assert (= "F" (CharAt var53 642)))
(assert (= "h" (CharAt var9 148)))
(assert (= "," (CharAt var15 475)))
(assert (= ";" (CharAt var9 595)))
(assert (= ")" (CharAt var60 572)))
(assert (= "{" (CharAt var39 813)))
(assert (= "f" (CharAt var32 68)))
(assert (= "&" (CharAt var59 476)))
(assert (= "O" (CharAt var6 830)))
(assert (= "r" (CharAt var50 792)))
(assert (= ")" (CharAt var40 0)))
(assert (= "k" (CharAt var37 16)))
(assert (= "7" (CharAt var46 63)))
(assert (= "&" (CharAt var20 892)))
(assert (= "u" (CharAt var31 270)))
(assert (= "{" (CharAt var3 314)))
(assert (= "Z" (CharAt var54 149)))
(assert (= "f" (CharAt var48 758)))
(assert (= "r" (CharAt var15 517)))
(assert (= "v" (CharAt var42 572)))
(assert (= ")" (CharAt var46 157)))
(assert (= "0" (CharAt var44 885)))
(assert (= "@" (CharAt var40 832)))
(assert (= "/" (CharAt var54 287)))
(assert (= "^" (CharAt var42 441)))
(assert (= "T" (CharAt var33 282)))
(assert (= "@" (CharAt var49 650)))
(assert (= "r" (CharAt var42 94)))
(assert (= "r" (CharAt var46 782)))
(assert (= "r" (CharAt var47 106)))
(assert (= "`" (CharAt var54 322)))
(assert (= "N" (CharAt var16 414)))
(assert (= "?" (CharAt var14 374)))
(assert (= "H" (CharAt var20 36)))
(assert (= "W" (CharAt var59 354)))
(assert (= "0" (CharAt var6 767)))
(assert (= "R" (CharAt var21 679)))
(assert (= "p" (CharAt var26 358)))
(assert (= "'" (CharAt var33 42)))
(assert (= "k" (CharAt var55 945)))
(assert (= "{" (CharAt var51 410)))
(assert (= "i" (CharAt var3 116)))
(assert (= "(" (CharAt var53 762)))
(assert (= "U" (CharAt var29 527)))
(check-sat)
(get-model)